p cnf 107 779
1 2 0
3 2 0
-1 -3 -2 0
4 -5 -2 0
-4 2 -5 0
5 -4 -2 0
4 2 5 0
1 6 0
3 6 0
7 6 0
4 6 0
-1 -3 -7 -4 -6 0
8 -9 -6 0
-9 -8 6 0
9 -8 -6 0
8 9 6 0
1 10 0
3 10 0
7 10 0
4 10 0
8 10 0
-1 -3 -7 -4 -8 -10 0
11 -10 -12 0
-11 10 -12 0
12 -11 -10 0
11 10 12 0
1 13 0
3 13 0
7 13 0
4 13 0
8 13 0
11 13 0
14 13 0
-1 -3 -7 -4 -8 -11 -14 -13 0
15 -13 -16 0
-15 13 -16 0
16 -15 -13 0
15 13 16 0
1 17 0
3 17 0
7 17 0
4 17 0
8 17 0
11 17 0
14 17 0
15 17 0
18 17 0
-1 -3 -7 -4 -8 -11 -14 -15 -18 -17 0
19 -17 -20 0
-19 17 -20 0
20 -19 -17 0
19 17 20 0
1 21 0
3 21 0
7 21 0
4 21 0
8 21 0
11 21 0
14 21 0
15 21 0
18 21 0
19 21 0
22 21 0
-1 -3 -7 -4 -8 -11 -14 -15 -18 -19 -22 -21 0
23 -21 -24 0
-23 21 -24 0
24 -23 -21 0
23 21 24 0
1 25 0
3 25 0
7 25 0
4 25 0
8 25 0
11 25 0
14 25 0
15 25 0
18 25 0
19 25 0
22 25 0
23 25 0
26 25 0
-1 -3 -7 -4 -8 -11 -14 -15 -18 -19 -22 -23 -26 -25 0
27 -25 -28 0
-27 25 -28 0
28 -27 -25 0
27 25 28 0
1 29 0
3 29 0
7 29 0
4 29 0
8 29 0
11 29 0
14 29 0
15 29 0
18 29 0
19 29 0
22 29 0
23 29 0
26 29 0
27 29 0
30 29 0
-1 -3 -7 -4 -8 -11 -14 -15 -18 -19 -22 -23 -26 -27 -30 -29 0
31 -29 -32 0
-31 29 -32 0
32 -31 -29 0
31 29 32 0
1 33 0
3 33 0
7 33 0
4 33 0
8 33 0
11 33 0
14 33 0
15 33 0
18 33 0
19 33 0
22 33 0
23 33 0
26 33 0
27 33 0
30 33 0
31 33 0
34 33 0
-1 -3 -7 -4 -8 -11 -14 -15 -18 -19 -22 -23 -26 -27 -30 -31 -34 -33 0
35 -33 -36 0
-35 33 -36 0
36 -35 -33 0
35 33 36 0
1 37 0
3 37 0
7 37 0
4 37 0
8 37 0
11 37 0
14 37 0
15 37 0
18 37 0
19 37 0
22 37 0
23 37 0
26 37 0
27 37 0
30 37 0
31 37 0
34 37 0
35 37 0
38 37 0
-1 -3 -7 -4 -8 -11 -14 -15 -18 -19 -22 -23 -26 -27 -30 -31 -34 -35 -38 -37 0
39 -37 -40 0
-39 37 -40 0
40 -39 -37 0
39 37 40 0
1 41 0
3 41 0
7 41 0
4 41 0
8 41 0
11 41 0
14 41 0
15 41 0
18 41 0
19 41 0
22 41 0
23 41 0
26 41 0
27 41 0
30 41 0
31 41 0
34 41 0
35 41 0
38 41 0
39 41 0
42 41 0
-1 -3 -7 -4 -8 -11 -14 -15 -18 -19 -22 -23 -26 -27 -30 -31 -34 -35 -38 -39 -42 -41 0
43 -41 -44 0
-43 41 -44 0
44 -43 -41 0
43 41 44 0
1 45 0
3 45 0
7 45 0
4 45 0
8 45 0
11 45 0
14 45 0
15 45 0
18 45 0
19 45 0
22 45 0
23 45 0
26 45 0
27 45 0
30 45 0
31 45 0
34 45 0
35 45 0
38 45 0
39 45 0
42 45 0
43 45 0
46 45 0
-1 -3 -7 -4 -8 -11 -14 -15 -18 -19 -22 -23 -26 -27 -30 -31 -34 -35 -38 -39 -42 -43 -46 -45 0
47 -45 -48 0
-47 45 -48 0
48 -47 -45 0
47 45 48 0
1 49 0
3 49 0
7 49 0
4 49 0
8 49 0
11 49 0
14 49 0
15 49 0
18 49 0
19 49 0
22 49 0
23 49 0
26 49 0
27 49 0
30 49 0
31 49 0
34 49 0
35 49 0
38 49 0
39 49 0
42 49 0
43 49 0
46 49 0
47 49 0
50 49 0
-1 -3 -7 -4 -8 -11 -14 -15 -18 -19 -22 -23 -26 -27 -30 -31 -34 -35 -38 -39 -42 -43 -46 -47 -50 -49 0
51 -49 -52 0
-51 49 -52 0
52 -51 -49 0
51 49 52 0
1 53 0
3 53 0
7 53 0
4 53 0
8 53 0
11 53 0
14 53 0
15 53 0
18 53 0
19 53 0
22 53 0
23 53 0
26 53 0
27 53 0
30 53 0
31 53 0
34 53 0
35 53 0
38 53 0
39 53 0
42 53 0
43 53 0
46 53 0
47 53 0
50 53 0
51 53 0
54 53 0
-1 -3 -7 -4 -8 -11 -14 -15 -18 -19 -22 -23 -26 -27 -30 -31 -34 -35 -38 -39 -42 -43 -46 -47 -50 -51 -54 -53 0
55 -53 -56 0
-55 53 -56 0
56 -55 -53 0
55 53 56 0
1 57 0
3 57 0
7 57 0
4 57 0
8 57 0
11 57 0
14 57 0
15 57 0
18 57 0
19 57 0
22 57 0
23 57 0
26 57 0
27 57 0
30 57 0
31 57 0
34 57 0
35 57 0
38 57 0
39 57 0
42 57 0
43 57 0
46 57 0
47 57 0
50 57 0
51 57 0
54 57 0
55 57 0
58 57 0
-1 -3 -7 -4 -8 -11 -14 -15 -18 -19 -22 -23 -26 -27 -30 -31 -34 -35 -38 -39 -42 -43 -46 -47 -50 -51 -54 -55 -58 -57 0
59 -57 -60 0
-59 57 -60 0
60 -59 -57 0
59 57 60 0
1 61 0
3 61 0
7 61 0
4 61 0
8 61 0
11 61 0
14 61 0
15 61 0
18 61 0
19 61 0
22 61 0
23 61 0
26 61 0
27 61 0
30 61 0
31 61 0
34 61 0
35 61 0
38 61 0
39 61 0
42 61 0
43 61 0
46 61 0
47 61 0
50 61 0
51 61 0
54 61 0
55 61 0
58 61 0
59 61 0
62 61 0
-1 -3 -7 -4 -8 -11 -14 -15 -18 -19 -22 -23 -26 -27 -30 -31 -34 -35 -38 -39 -42 -43 -46 -47 -50 -51 -54 -55 -58 -59 -62 -61 0
63 -61 -64 0
-63 61 -64 0
64 -63 -61 0
63 61 64 0
1 65 0
3 65 0
7 65 0
4 65 0
8 65 0
11 65 0
14 65 0
15 65 0
18 65 0
19 65 0
22 65 0
23 65 0
26 65 0
27 65 0
30 65 0
31 65 0
34 65 0
35 65 0
38 65 0
39 65 0
42 65 0
43 65 0
46 65 0
47 65 0
50 65 0
51 65 0
54 65 0
55 65 0
58 65 0
59 65 0
62 65 0
63 65 0
-1 -3 -7 -4 -8 -11 -14 -15 -18 -19 -22 -23 -26 -27 -30 -31 -34 -35 -38 -39 -42 -43 -46 -47 -50 -51 -54 -55 -58 -59 -62 -63 -65 0
3 -65 -66 0
-3 65 -66 0
66 -3 -65 0
3 65 66 0
1 67 0
3 67 0
4 67 0
-1 -3 -4 -67 0
7 -67 -68 0
-7 67 -68 0
68 -7 -67 0
7 67 68 0
1 69 0
3 69 0
7 69 0
4 69 0
8 69 0
11 69 0
-1 -3 -7 -4 -8 -11 -69 0
14 -69 -70 0
-14 69 -70 0
70 -14 -69 0
14 69 70 0
1 71 0
3 71 0
7 71 0
4 71 0
8 71 0
11 71 0
14 71 0
15 71 0
-1 -3 -7 -4 -8 -11 -14 -15 -71 0
18 -71 -72 0
-18 71 -72 0
72 -18 -71 0
18 71 72 0
1 73 0
3 73 0
7 73 0
4 73 0
8 73 0
11 73 0
14 73 0
15 73 0
18 73 0
19 73 0
-1 -3 -7 -4 -8 -11 -14 -15 -18 -19 -73 0
22 -73 -74 0
-22 73 -74 0
74 -22 -73 0
22 73 74 0
1 75 0
3 75 0
7 75 0
4 75 0
8 75 0
11 75 0
14 75 0
15 75 0
18 75 0
19 75 0
22 75 0
23 75 0
-1 -3 -7 -4 -8 -11 -14 -15 -18 -19 -22 -23 -75 0
26 -75 -76 0
-26 75 -76 0
76 -26 -75 0
26 75 76 0
1 77 0
3 77 0
7 77 0
4 77 0
8 77 0
11 77 0
14 77 0
15 77 0
18 77 0
19 77 0
22 77 0
23 77 0
26 77 0
27 77 0
-1 -3 -7 -4 -8 -11 -14 -15 -18 -19 -22 -23 -26 -27 -77 0
30 -77 -78 0
-30 77 -78 0
78 -30 -77 0
30 77 78 0
1 79 0
3 79 0
7 79 0
4 79 0
8 79 0
11 79 0
14 79 0
15 79 0
18 79 0
19 79 0
22 79 0
23 79 0
26 79 0
27 79 0
30 79 0
31 79 0
-1 -3 -7 -4 -8 -11 -14 -15 -18 -19 -22 -23 -26 -27 -30 -31 -79 0
34 -79 -80 0
-34 79 -80 0
80 -34 -79 0
34 79 80 0
1 81 0
3 81 0
7 81 0
4 81 0
8 81 0
11 81 0
14 81 0
15 81 0
18 81 0
19 81 0
22 81 0
23 81 0
26 81 0
27 81 0
30 81 0
31 81 0
34 81 0
35 81 0
-1 -3 -7 -4 -8 -11 -14 -15 -18 -19 -22 -23 -26 -27 -30 -31 -34 -35 -81 0
38 -81 -82 0
-38 81 -82 0
82 -38 -81 0
38 81 82 0
1 83 0
3 83 0
7 83 0
4 83 0
8 83 0
11 83 0
14 83 0
15 83 0
18 83 0
19 83 0
22 83 0
23 83 0
26 83 0
27 83 0
30 83 0
31 83 0
34 83 0
35 83 0
38 83 0
39 83 0
-1 -3 -7 -4 -8 -11 -14 -15 -18 -19 -22 -23 -26 -27 -30 -31 -34 -35 -38 -39 -83 0
42 -83 -84 0
-42 83 -84 0
84 -42 -83 0
42 83 84 0
1 85 0
3 85 0
7 85 0
4 85 0
8 85 0
11 85 0
14 85 0
15 85 0
18 85 0
19 85 0
22 85 0
23 85 0
26 85 0
27 85 0
30 85 0
31 85 0
34 85 0
35 85 0
38 85 0
39 85 0
42 85 0
43 85 0
-1 -3 -7 -4 -8 -11 -14 -15 -18 -19 -22 -23 -26 -27 -30 -31 -34 -35 -38 -39 -42 -43 -85 0
46 -85 -86 0
-46 85 -86 0
86 -46 -85 0
46 85 86 0
1 87 0
3 87 0
7 87 0
4 87 0
8 87 0
11 87 0
14 87 0
15 87 0
18 87 0
19 87 0
22 87 0
23 87 0
26 87 0
27 87 0
30 87 0
31 87 0
34 87 0
35 87 0
38 87 0
39 87 0
42 87 0
43 87 0
46 87 0
47 87 0
-1 -3 -7 -4 -8 -11 -14 -15 -18 -19 -22 -23 -26 -27 -30 -31 -34 -35 -38 -39 -42 -43 -46 -47 -87 0
50 -87 -88 0
-50 87 -88 0
88 -50 -87 0
50 87 88 0
1 89 0
3 89 0
7 89 0
4 89 0
8 89 0
11 89 0
14 89 0
15 89 0
18 89 0
19 89 0
22 89 0
23 89 0
26 89 0
27 89 0
30 89 0
31 89 0
34 89 0
35 89 0
38 89 0
39 89 0
42 89 0
43 89 0
46 89 0
47 89 0
50 89 0
51 89 0
-1 -3 -7 -4 -8 -11 -14 -15 -18 -19 -22 -23 -26 -27 -30 -31 -34 -35 -38 -39 -42 -43 -46 -47 -50 -51 -89 0
54 -89 -90 0
-54 89 -90 0
90 -54 -89 0
54 89 90 0
1 91 0
3 91 0
7 91 0
4 91 0
8 91 0
11 91 0
14 91 0
15 91 0
18 91 0
19 91 0
22 91 0
23 91 0
26 91 0
27 91 0
30 91 0
31 91 0
34 91 0
35 91 0
38 91 0
39 91 0
42 91 0
43 91 0
46 91 0
47 91 0
50 91 0
51 91 0
54 91 0
55 91 0
-1 -3 -7 -4 -8 -11 -14 -15 -18 -19 -22 -23 -26 -27 -30 -31 -34 -35 -38 -39 -42 -43 -46 -47 -50 -51 -54 -55 -91 0
58 -91 -92 0
-58 91 -92 0
92 -58 -91 0
58 91 92 0
1 93 0
3 93 0
7 93 0
4 93 0
8 93 0
11 93 0
14 93 0
15 93 0
18 93 0
19 93 0
22 93 0
23 93 0
26 93 0
27 93 0
30 93 0
31 93 0
34 93 0
35 93 0
38 93 0
39 93 0
42 93 0
43 93 0
46 93 0
47 93 0
50 93 0
51 93 0
54 93 0
55 93 0
58 93 0
59 93 0
-1 -3 -7 -4 -8 -11 -14 -15 -18 -19 -22 -23 -26 -27 -30 -31 -34 -35 -38 -39 -42 -43 -46 -47 -50 -51 -54 -55 -58 -59 -93 0
62 -93 -94 0
-62 93 -94 0
94 -62 -93 0
62 93 94 0
5 95 0
94 95 0
92 95 0
90 95 0
88 95 0
86 95 0
84 95 0
82 95 0
80 95 0
78 95 0
76 95 0
74 95 0
72 95 0
70 95 0
68 95 0
66 95 0
64 95 0
60 95 0
56 95 0
52 95 0
48 95 0
44 95 0
40 95 0
36 95 0
32 95 0
28 95 0
24 95 0
20 95 0
16 95 0
12 95 0
9 95 0
-9 -5 -12 -16 -20 -24 -28 -32 -36 -40 -44 -48 -52 -56 -60 -64 -66 -68 -70 -72 -74 -76 -78 -80 -82 -84 -86 -88 -90 -92 -94 -95 0
3 -65 -96 0
-3 65 -96 0
96 -3 -65 0
3 65 96 0
-95 96 -97 0
95 -96 -97 0
-95 -96 97 0
95 96 97 0
5 98 0
96 98 0
-5 -96 -98 0
68 -98 -99 0
-68 98 -99 0
99 -68 -98 0
68 98 99 0
99 100 0
97 100 0
-97 -99 -100 0
5 101 0
68 101 0
96 101 0
-5 -68 -96 -101 0
8 -6 -102 0
-8 6 -102 0
102 -8 -6 0
8 6 102 0
100 101 102 -103 0
-100 -101 102 -103 0
-100 101 -102 -103 0
100 -101 -102 -103 0
-100 -101 -102 103 0
100 101 -102 103 0
100 -101 102 103 0
-100 101 102 103 0
68 -98 -104 0
-68 98 -104 0
104 -68 -98 0
68 98 104 0
4 -2 -105 0
-4 2 -105 0
105 -4 -2 0
4 2 105 0
68 -98 -106 0
-68 98 -106 0
106 -68 -98 0
68 98 106 0
4 -2 -107 0
-4 2 -107 0
107 -4 -2 0
4 2 107 0
-1 0
-1 -107 0
-1 106 0
-1 106 -107 0
-1 -106 0
-1 -106 -107 0
-1 103 0
-1 103 -107 0
-1 103 106 0
-1 107 0
-1 106 107 0
-1 -106 107 0
-1 103 107 0
103 106 107 0
1 103 106 107 0
c 1 k!0
c 4 k!1
c 7 k!2
c 8 k!3
c 11 k!4
c 14 k!5
c 15 k!6
c 18 k!7
c 19 k!8
c 22 k!9
c 23 k!10
c 26 k!11
c 27 k!12
c 30 k!13
c 31 k!14
c 34 k!15
c 35 k!16
c 38 k!17
c 39 k!18
c 42 k!19
c 43 k!20
c 46 k!21
c 47 k!22
c 50 k!23
c 51 k!24
c 54 k!25
c 55 k!26
c 58 k!27
c 59 k!28
c 62 k!29
c 63 k!30
c 3 k!31
c 9 k!35
c 2 k!32
c 5 k!33
c 6 k!34
c 10 k!36
c 12 k!37
c 13 k!38
c 16 k!39
c 17 k!40
c 20 k!41
c 21 k!42
c 24 k!43
c 25 k!44
c 28 k!45
c 29 k!46
c 32 k!47
c 33 k!48
c 36 k!49
c 37 k!50
c 40 k!51
c 41 k!52
c 44 k!53
c 45 k!54
c 48 k!55
c 49 k!56
c 52 k!57
c 53 k!58
c 56 k!59
c 57 k!60
c 60 k!61
c 61 k!62
c 64 k!63
c 65 k!64
c 66 k!65
c 67 k!66
c 68 k!67
c 69 k!68
c 70 k!69
c 71 k!70
c 72 k!71
c 73 k!72
c 74 k!73
c 75 k!74
c 76 k!75
c 77 k!76
c 78 k!77
c 79 k!78
c 80 k!79
c 81 k!80
c 82 k!81
c 83 k!82
c 84 k!83
c 85 k!84
c 86 k!85
c 87 k!86
c 88 k!87
c 89 k!88
c 90 k!89
c 91 k!90
c 92 k!91
c 93 k!92
c 94 k!93
c 95 k!94
c 96 k!95
c 97 k!96
c 98 k!97
c 99 k!98
c 100 k!99
c 101 k!100
c 102 k!101
c 103 k!102
c 104 k!103
c 105 k!104
c 106 k!105
c 107 k!106